Geographic Exponential Decay
20 292 164 195 32 50 309 44 252 37 159 119 225 67 181 285 248 266 83 78 116
p edge 320 319
e 0 126 19.0
e 0 159 86.0
e 0 202 45.0
e 1 24 11.0
e 1 0 18.0
e 2 58 2.0
e 2 1 3.0
e 3 284 3.0
e 3 2 2.0
e 4 117 28.0
e 4 300 14.0
e 4 279 18.0
e 4 3 24.0
e 5 244 1.0
e 5 4 47.0
e 6 234 4.0
e 6 5 2.0
e 7 272 5.0
e 7 6 9.0
e 8 306 5.0
e 8 7 6.0
e 9 235 1.0
e 9 8 1.0
e 10 273 2.0
e 10 9 2.0
e 11 240 1.0
e 11 10 1.0
e 12 220 1.0
e 12 11 3.0
e 13 254 2.0
e 13 12 6.0
e 14 256 2.0
e 14 59 40.0
e 14 221 34.0
e 14 13 10.0
e 15 222 1.0
e 15 14 1.0
e 16 104 6.0
e 16 15 12.0
e 17 155 1.0
e 17 16 5.0
e 18 237 2.0
e 18 17 2.0
e 19 231 3.0
e 19 18 1.0
e 20 268 1.0
e 20 19 1.0
e 21 112 1.0
e 21 20 1.0
e 22 207 1.0
e 22 21 1.0
e 23 114 5.0
e 23 22 4.0
e 25 274 1.0
e 25 23 5.0
e 26 236 5.0
e 26 257 9.0
e 26 25 22.0
e 27 168 8.0
e 27 200 3.0
e 27 26 15.0
e 28 183 1.0
e 28 27 4.0
e 29 84 5.0
e 29 28 1.0
e 30 177 5.0
e 30 29 1.0
e 31 277 1.0
e 31 30 1.0
e 32 247 100.0
e 32 291 39.0
e 32 192 95.0
e 32 130 73.0
e 32 150 80.0
e 32 31 81.0
e 33 169 1.0
e 33 32 27.0
e 34 121 3.0
e 34 33 1.0
e 35 287 1.0
e 35 34 2.0
e 36 83 41.0
e 36 35 1.0
e 37 224 96.0
e 37 62 38.0
e 37 174 74.0
e 37 76 68.0
e 37 83 23.0
e 38 310 11.0
e 38 49 1.0
e 38 36 2.0
e 39 241 10.0
e 39 38 13.0
e 40 63 5.0
e 40 39 4.0
e 41 178 2.0
e 41 40 1.0
e 42 52 1.0
e 42 41 4.0
e 43 93 4.0
e 43 42 1.0
e 44 188 24.0
e 44 45 2.0
e 44 85 70.0
e 44 158 91.0
e 44 179 34.0
e 44 43 87.0
e 45 297 5.0
e 46 212 10.0
e 46 44 91.0
e 47 48 4.0
e 47 46 6.0
e 50 70 81.0
e 50 113 58.0
e 50 160 27.0
e 50 308 26.0
e 50 60 24.0
e 50 47 92.0
e 51 53 3.0
e 51 50 100.0
e 54 55 2.0
e 54 51 3.0
e 56 96 4.0
e 56 54 2.0
e 57 159 25.0
e 61 137 1.0
e 61 56 6.0
e 64 65 2.0
e 64 61 1.0
e 66 67 88.0
e 66 64 1.0
e 67 110 21.0
e 67 68 82.0
e 67 151 15.0
e 67 260 69.0
e 69 199 15.0
e 69 239 10.0
e 69 66 23.0
e 71 72 7.0
e 71 69 8.0
e 73 74 4.0
e 73 71 4.0
e 75 77 1.0
e 75 73 2.0
e 78 280 46.0
e 78 242 27.0
e 78 302 19.0
e 78 92 89.0
e 78 204 86.0
e 78 75 8.0
e 79 132 5.0
e 79 78 52.0
e 80 289 1.0
e 80 79 7.0
e 81 175 1.0
e 81 80 8.0
e 82 290 1.0
e 82 81 5.0
e 83 131 42.0
e 83 94 97.0
e 83 191 54.0
e 86 301 5.0
e 86 82 1.0
e 87 88 9.0
e 87 86 9.0
e 89 173 2.0
e 89 87 4.0
e 90 294 6.0
e 90 89 1.0
e 91 262 20.0
e 91 266 4.0
e 91 125 25.0
e 91 90 23.0
e 95 97 11.0
e 95 91 20.0
e 98 317 1.0
e 98 95 8.0
e 99 269 9.0
e 99 98 9.0
e 100 106 4.0
e 100 99 3.0
e 101 102 1.0
e 101 100 3.0
e 103 295 1.0
e 103 101 2.0
e 105 107 1.0
e 105 103 2.0
e 108 311 2.0
e 108 105 1.0
e 109 238 2.0
e 109 108 2.0
e 111 282 4.0
e 111 109 2.0
e 115 193 24.0
e 115 111 1.0
e 116 118 56.0
e 116 259 21.0
e 116 300 89.0
e 116 270 58.0
e 116 243 14.0
e 119 261 57.0
e 119 120 89.0
e 119 223 69.0
e 119 159 11.0
e 119 122 63.0
e 123 288 2.0
e 123 115 2.0
e 124 248 98.0
e 124 123 2.0
e 127 153 2.0
e 127 124 1.0
e 128 129 6.0
e 128 127 3.0
e 131 185 39.0
e 131 245 43.0
e 133 218 7.0
e 133 128 12.0
e 134 180 9.0
e 135 136 1.0
e 135 133 11.0
e 138 139 5.0
e 138 135 1.0
e 140 141 2.0
e 140 138 2.0
e 142 143 3.0
e 142 140 1.0
e 144 216 2.0
e 144 142 2.0
e 145 203 4.0
e 145 144 1.0
e 146 147 2.0
e 146 145 1.0
e 148 149 1.0
e 148 146 5.0
e 152 154 2.0
e 152 148 10.0
e 156 157 17.0
e 156 159 83.0
e 157 296 8.0
e 159 161 56.0
e 162 163 5.0
e 162 152 8.0
e 164 229 28.0
e 164 276 30.0
e 164 165 58.0
e 164 180 68.0
e 164 285 13.0
e 166 196 2.0
e 166 162 4.0
e 167 246 3.0
e 167 166 5.0
e 170 187 2.0
e 170 167 3.0
e 171 172 3.0
e 171 170 5.0
e 176 263 1.0
e 176 171 1.0
e 181 182 95.0
e 181 184 60.0
e 181 186 46.0
e 181 189 2.0
e 181 190 32.0
e 181 176 69.0
e 193 194 15.0
e 193 195 21.0
e 195 197 40.0
e 195 198 99.0
e 195 271 76.0
e 195 201 76.0
e 205 206 5.0
e 205 181 13.0
e 208 209 11.0
e 208 205 8.0
e 210 211 1.0
e 210 208 8.0
e 213 214 7.0
e 213 210 1.0
e 215 217 4.0
e 215 213 1.0
e 219 223 4.0
e 225 226 89.0
e 225 227 99.0
e 225 228 24.0
e 225 230 70.0
e 225 232 38.0
e 225 215 32.0
e 233 248 52.0
e 248 249 43.0
e 248 303 83.0
e 248 250 87.0
e 251 252 86.0
e 252 253 49.0
e 252 255 1.0
e 252 302 98.0
e 252 258 56.0
e 264 265 5.0
e 264 225 52.0
e 266 267 1.0
e 266 275 27.0
e 266 276 60.0
e 266 278 92.0
e 275 298 22.0
e 281 283 1.0
e 281 264 2.0
e 285 309 89.0
e 285 286 37.0
e 285 292 19.0
e 285 293 79.0
e 292 299 3.0
e 292 304 73.0
e 292 305 27.0
e 292 307 78.0
e 309 312 63.0
e 309 313 30.0
e 309 314 38.0
e 309 315 94.0
e 312 316 17.0
e 312 318 29.0
e 319 281 1.0
